c description: Tseitin formula on , with odd charge
c generator: CNFgen (0.9.0)
c copyright: (C) 2012-2020 Massimo Lauria <massimo.lauria@uniroma1.it>
c url: https://massimolauria.net/cnfgen
c
p cnf 30 476
1 2 3 4 5 6 7 0
1 2 3 4 5 -6 -7 0
1 2 3 4 -5 6 -7 0
1 2 3 4 -5 -6 7 0
1 2 3 -4 5 6 -7 0
1 2 3 -4 5 -6 7 0
1 2 3 -4 -5 6 7 0
1 2 3 -4 -5 -6 -7 0
1 2 -3 4 5 6 -7 0
1 2 -3 4 5 -6 7 0
1 2 -3 4 -5 6 7 0
1 2 -3 4 -5 -6 -7 0
1 2 -3 -4 5 6 7 0
1 2 -3 -4 5 -6 -7 0
1 2 -3 -4 -5 6 -7 0
1 2 -3 -4 -5 -6 7 0
1 -2 3 4 5 6 -7 0
1 -2 3 4 5 -6 7 0
1 -2 3 4 -5 6 7 0
1 -2 3 4 -5 -6 -7 0
1 -2 3 -4 5 6 7 0
1 -2 3 -4 5 -6 -7 0
1 -2 3 -4 -5 6 -7 0
1 -2 3 -4 -5 -6 7 0
1 -2 -3 4 5 6 7 0
1 -2 -3 4 5 -6 -7 0
1 -2 -3 4 -5 6 -7 0
1 -2 -3 4 -5 -6 7 0
1 -2 -3 -4 5 6 -7 0
1 -2 -3 -4 5 -6 7 0
1 -2 -3 -4 -5 6 7 0
1 -2 -3 -4 -5 -6 -7 0
-1 2 3 4 5 6 -7 0
-1 2 3 4 5 -6 7 0
-1 2 3 4 -5 6 7 0
-1 2 3 4 -5 -6 -7 0
-1 2 3 -4 5 6 7 0
-1 2 3 -4 5 -6 -7 0
-1 2 3 -4 -5 6 -7 0
-1 2 3 -4 -5 -6 7 0
-1 2 -3 4 5 6 7 0
-1 2 -3 4 5 -6 -7 0
-1 2 -3 4 -5 6 -7 0
-1 2 -3 4 -5 -6 7 0
-1 2 -3 -4 5 6 -7 0
-1 2 -3 -4 5 -6 7 0
-1 2 -3 -4 -5 6 7 0
-1 2 -3 -4 -5 -6 -7 0
-1 -2 3 4 5 6 7 0
-1 -2 3 4 5 -6 -7 0
-1 -2 3 4 -5 6 -7 0
-1 -2 3 4 -5 -6 7 0
-1 -2 3 -4 5 6 -7 0
-1 -2 3 -4 5 -6 7 0
-1 -2 3 -4 -5 6 7 0
-1 -2 3 -4 -5 -6 -7 0
-1 -2 -3 4 5 6 -7 0
-1 -2 -3 4 5 -6 7 0
-1 -2 -3 4 -5 6 7 0
-1 -2 -3 4 -5 -6 -7 0
-1 -2 -3 -4 5 6 7 0
-1 -2 -3 -4 5 -6 -7 0
-1 -2 -3 -4 -5 6 -7 0
-1 -2 -3 -4 -5 -6 7 0
1 8 9 10 11 12 -13 0
1 8 9 10 11 -12 13 0
1 8 9 10 -11 12 13 0
1 8 9 10 -11 -12 -13 0
1 8 9 -10 11 12 13 0
1 8 9 -10 11 -12 -13 0
1 8 9 -10 -11 12 -13 0
1 8 9 -10 -11 -12 13 0
1 8 -9 10 11 12 13 0
1 8 -9 10 11 -12 -13 0
1 8 -9 10 -11 12 -13 0
1 8 -9 10 -11 -12 13 0
1 8 -9 -10 11 12 -13 0
1 8 -9 -10 11 -12 13 0
1 8 -9 -10 -11 12 13 0
1 8 -9 -10 -11 -12 -13 0
1 -8 9 10 11 12 13 0
1 -8 9 10 11 -12 -13 0
1 -8 9 10 -11 12 -13 0
1 -8 9 10 -11 -12 13 0
1 -8 9 -10 11 12 -13 0
1 -8 9 -10 11 -12 13 0
1 -8 9 -10 -11 12 13 0
1 -8 9 -10 -11 -12 -13 0
1 -8 -9 10 11 12 -13 0
1 -8 -9 10 11 -12 13 0
1 -8 -9 10 -11 12 13 0
1 -8 -9 10 -11 -12 -13 0
1 -8 -9 -10 11 12 13 0
1 -8 -9 -10 11 -12 -13 0
1 -8 -9 -10 -11 12 -13 0
1 -8 -9 -10 -11 -12 13 0
-1 8 9 10 11 12 13 0
-1 8 9 10 11 -12 -13 0
-1 8 9 10 -11 12 -13 0
-1 8 9 10 -11 -12 13 0
-1 8 9 -10 11 12 -13 0
-1 8 9 -10 11 -12 13 0
-1 8 9 -10 -11 12 13 0
-1 8 9 -10 -11 -12 -13 0
-1 8 -9 10 11 12 -13 0
-1 8 -9 10 11 -12 13 0
-1 8 -9 10 -11 12 13 0
-1 8 -9 10 -11 -12 -13 0
-1 8 -9 -10 11 12 13 0
-1 8 -9 -10 11 -12 -13 0
-1 8 -9 -10 -11 12 -13 0
-1 8 -9 -10 -11 -12 13 0
-1 -8 9 10 11 12 -13 0
-1 -8 9 10 11 -12 13 0
-1 -8 9 10 -11 12 13 0
-1 -8 9 10 -11 -12 -13 0
-1 -8 9 -10 11 12 13 0
-1 -8 9 -10 11 -12 -13 0
-1 -8 9 -10 -11 12 -13 0
-1 -8 9 -10 -11 -12 13 0
-1 -8 -9 10 11 12 13 0
-1 -8 -9 10 11 -12 -13 0
-1 -8 -9 10 -11 12 -13 0
-1 -8 -9 10 -11 -12 13 0
-1 -8 -9 -10 11 12 -13 0
-1 -8 -9 -10 11 -12 13 0
-1 -8 -9 -10 -11 12 13 0
-1 -8 -9 -10 -11 -12 -13 0
2 14 -15 0
2 -14 15 0
-2 14 15 0
-2 -14 -15 0
3 8 16 17 18 -19 0
3 8 16 17 -18 19 0
3 8 16 -17 18 19 0
3 8 16 -17 -18 -19 0
3 8 -16 17 18 19 0
3 8 -16 17 -18 -19 0
3 8 -16 -17 18 -19 0
3 8 -16 -17 -18 19 0
3 -8 16 17 18 19 0
3 -8 16 17 -18 -19 0
3 -8 16 -17 18 -19 0
3 -8 16 -17 -18 19 0
3 -8 -16 17 18 -19 0
3 -8 -16 17 -18 19 0
3 -8 -16 -17 18 19 0
3 -8 -16 -17 -18 -19 0
-3 8 16 17 18 19 0
-3 8 16 17 -18 -19 0
-3 8 16 -17 18 -19 0
-3 8 16 -17 -18 19 0
-3 8 -16 17 18 -19 0
-3 8 -16 17 -18 19 0
-3 8 -16 -17 18 19 0
-3 8 -16 -17 -18 -19 0
-3 -8 16 17 18 -19 0
-3 -8 16 17 -18 19 0
-3 -8 16 -17 18 19 0
-3 -8 16 -17 -18 -19 0
-3 -8 -16 17 18 19 0
-3 -8 -16 17 -18 -19 0
-3 -8 -16 -17 18 -19 0
-3 -8 -16 -17 -18 19 0
4 9 16 20 21 22 -23 0
4 9 16 20 21 -22 23 0
4 9 16 20 -21 22 23 0
4 9 16 20 -21 -22 -23 0
4 9 16 -20 21 22 23 0
4 9 16 -20 21 -22 -23 0
4 9 16 -20 -21 22 -23 0
4 9 16 -20 -21 -22 23 0
4 9 -16 20 21 22 23 0
4 9 -16 20 21 -22 -23 0
4 9 -16 20 -21 22 -23 0
4 9 -16 20 -21 -22 23 0
4 9 -16 -20 21 22 -23 0
4 9 -16 -20 21 -22 23 0
4 9 -16 -20 -21 22 23 0
4 9 -16 -20 -21 -22 -23 0
4 -9 16 20 21 22 23 0
4 -9 16 20 21 -22 -23 0
4 -9 16 20 -21 22 -23 0
4 -9 16 20 -21 -22 23 0
4 -9 16 -20 21 22 -23 0
4 -9 16 -20 21 -22 23 0
4 -9 16 -20 -21 22 23 0
4 -9 16 -20 -21 -22 -23 0
4 -9 -16 20 21 22 -23 0
4 -9 -16 20 21 -22 23 0
4 -9 -16 20 -21 22 23 0
4 -9 -16 20 -21 -22 -23 0
4 -9 -16 -20 21 22 23 0
4 -9 -16 -20 21 -22 -23 0
4 -9 -16 -20 -21 22 -23 0
4 -9 -16 -20 -21 -22 23 0
-4 9 16 20 21 22 23 0
-4 9 16 20 21 -22 -23 0
-4 9 16 20 -21 22 -23 0
-4 9 16 20 -21 -22 23 0
-4 9 16 -20 21 22 -23 0
-4 9 16 -20 21 -22 23 0
-4 9 16 -20 -21 22 23 0
-4 9 16 -20 -21 -22 -23 0
-4 9 -16 20 21 22 -23 0
-4 9 -16 20 21 -22 23 0
-4 9 -16 20 -21 22 23 0
-4 9 -16 20 -21 -22 -23 0
-4 9 -16 -20 21 22 23 0
-4 9 -16 -20 21 -22 -23 0
-4 9 -16 -20 -21 22 -23 0
-4 9 -16 -20 -21 -22 23 0
-4 -9 16 20 21 22 -23 0
-4 -9 16 20 21 -22 23 0
-4 -9 16 20 -21 22 23 0
-4 -9 16 20 -21 -22 -23 0
-4 -9 16 -20 21 22 23 0
-4 -9 16 -20 21 -22 -23 0
-4 -9 16 -20 -21 22 -23 0
-4 -9 16 -20 -21 -22 23 0
-4 -9 -16 20 21 22 23 0
-4 -9 -16 20 21 -22 -23 0
-4 -9 -16 20 -21 22 -23 0
-4 -9 -16 20 -21 -22 23 0
-4 -9 -16 -20 21 22 -23 0
-4 -9 -16 -20 21 -22 23 0
-4 -9 -16 -20 -21 22 23 0
-4 -9 -16 -20 -21 -22 -23 0
10 17 20 24 -25 0
10 17 20 -24 25 0
10 17 -20 24 25 0
10 17 -20 -24 -25 0
10 -17 20 24 25 0
10 -17 20 -24 -25 0
10 -17 -20 24 -25 0
10 -17 -20 -24 25 0
-10 17 20 24 25 0
-10 17 20 -24 -25 0
-10 17 -20 24 -25 0
-10 17 -20 -24 25 0
-10 -17 20 24 -25 0
-10 -17 20 -24 25 0
-10 -17 -20 24 25 0
-10 -17 -20 -24 -25 0
11 14 21 24 26 27 -28 0
11 14 21 24 26 -27 28 0
11 14 21 24 -26 27 28 0
11 14 21 24 -26 -27 -28 0
11 14 21 -24 26 27 28 0
11 14 21 -24 26 -27 -28 0
11 14 21 -24 -26 27 -28 0
11 14 21 -24 -26 -27 28 0
11 14 -21 24 26 27 28 0
11 14 -21 24 26 -27 -28 0
11 14 -21 24 -26 27 -28 0
11 14 -21 24 -26 -27 28 0
11 14 -21 -24 26 27 -28 0
11 14 -21 -24 26 -27 28 0
11 14 -21 -24 -26 27 28 0
11 14 -21 -24 -26 -27 -28 0
11 -14 21 24 26 27 28 0
11 -14 21 24 26 -27 -28 0
11 -14 21 24 -26 27 -28 0
11 -14 21 24 -26 -27 28 0
11 -14 21 -24 26 27 -28 0
11 -14 21 -24 26 -27 28 0
11 -14 21 -24 -26 27 28 0
11 -14 21 -24 -26 -27 -28 0
11 -14 -21 24 26 27 -28 0
11 -14 -21 24 26 -27 28 0
11 -14 -21 24 -26 27 28 0
11 -14 -21 24 -26 -27 -28 0
11 -14 -21 -24 26 27 28 0
11 -14 -21 -24 26 -27 -28 0
11 -14 -21 -24 -26 27 -28 0
11 -14 -21 -24 -26 -27 28 0
-11 14 21 24 26 27 28 0
-11 14 21 24 26 -27 -28 0
-11 14 21 24 -26 27 -28 0
-11 14 21 24 -26 -27 28 0
-11 14 21 -24 26 27 -28 0
-11 14 21 -24 26 -27 28 0
-11 14 21 -24 -26 27 28 0
-11 14 21 -24 -26 -27 -28 0
-11 14 -21 24 26 27 -28 0
-11 14 -21 24 26 -27 28 0
-11 14 -21 24 -26 27 28 0
-11 14 -21 24 -26 -27 -28 0
-11 14 -21 -24 26 27 28 0
-11 14 -21 -24 26 -27 -28 0
-11 14 -21 -24 -26 27 -28 0
-11 14 -21 -24 -26 -27 28 0
-11 -14 21 24 26 27 -28 0
-11 -14 21 24 26 -27 28 0
-11 -14 21 24 -26 27 28 0
-11 -14 21 24 -26 -27 -28 0
-11 -14 21 -24 26 27 28 0
-11 -14 21 -24 26 -27 -28 0
-11 -14 21 -24 -26 27 -28 0
-11 -14 21 -24 -26 -27 28 0
-11 -14 -21 24 26 27 28 0
-11 -14 -21 24 26 -27 -28 0
-11 -14 -21 24 -26 27 -28 0
-11 -14 -21 24 -26 -27 28 0
-11 -14 -21 -24 26 27 -28 0
-11 -14 -21 -24 26 -27 28 0
-11 -14 -21 -24 -26 27 28 0
-11 -14 -21 -24 -26 -27 -28 0
5 12 15 18 22 26 29 -30 0
5 12 15 18 22 26 -29 30 0
5 12 15 18 22 -26 29 30 0
5 12 15 18 22 -26 -29 -30 0
5 12 15 18 -22 26 29 30 0
5 12 15 18 -22 26 -29 -30 0
5 12 15 18 -22 -26 29 -30 0
5 12 15 18 -22 -26 -29 30 0
5 12 15 -18 22 26 29 30 0
5 12 15 -18 22 26 -29 -30 0
5 12 15 -18 22 -26 29 -30 0
5 12 15 -18 22 -26 -29 30 0
5 12 15 -18 -22 26 29 -30 0
5 12 15 -18 -22 26 -29 30 0
5 12 15 -18 -22 -26 29 30 0
5 12 15 -18 -22 -26 -29 -30 0
5 12 -15 18 22 26 29 30 0
5 12 -15 18 22 26 -29 -30 0
5 12 -15 18 22 -26 29 -30 0
5 12 -15 18 22 -26 -29 30 0
5 12 -15 18 -22 26 29 -30 0
5 12 -15 18 -22 26 -29 30 0
5 12 -15 18 -22 -26 29 30 0
5 12 -15 18 -22 -26 -29 -30 0
5 12 -15 -18 22 26 29 -30 0
5 12 -15 -18 22 26 -29 30 0
5 12 -15 -18 22 -26 29 30 0
5 12 -15 -18 22 -26 -29 -30 0
5 12 -15 -18 -22 26 29 30 0
5 12 -15 -18 -22 26 -29 -30 0
5 12 -15 -18 -22 -26 29 -30 0
5 12 -15 -18 -22 -26 -29 30 0
5 -12 15 18 22 26 29 30 0
5 -12 15 18 22 26 -29 -30 0
5 -12 15 18 22 -26 29 -30 0
5 -12 15 18 22 -26 -29 30 0
5 -12 15 18 -22 26 29 -30 0
5 -12 15 18 -22 26 -29 30 0
5 -12 15 18 -22 -26 29 30 0
5 -12 15 18 -22 -26 -29 -30 0
5 -12 15 -18 22 26 29 -30 0
5 -12 15 -18 22 26 -29 30 0
5 -12 15 -18 22 -26 29 30 0
5 -12 15 -18 22 -26 -29 -30 0
5 -12 15 -18 -22 26 29 30 0
5 -12 15 -18 -22 26 -29 -30 0
5 -12 15 -18 -22 -26 29 -30 0
5 -12 15 -18 -22 -26 -29 30 0
5 -12 -15 18 22 26 29 -30 0
5 -12 -15 18 22 26 -29 30 0
5 -12 -15 18 22 -26 29 30 0
5 -12 -15 18 22 -26 -29 -30 0
5 -12 -15 18 -22 26 29 30 0
5 -12 -15 18 -22 26 -29 -30 0
5 -12 -15 18 -22 -26 29 -30 0
5 -12 -15 18 -22 -26 -29 30 0
5 -12 -15 -18 22 26 29 30 0
5 -12 -15 -18 22 26 -29 -30 0
5 -12 -15 -18 22 -26 29 -30 0
5 -12 -15 -18 22 -26 -29 30 0
5 -12 -15 -18 -22 26 29 -30 0
5 -12 -15 -18 -22 26 -29 30 0
5 -12 -15 -18 -22 -26 29 30 0
5 -12 -15 -18 -22 -26 -29 -30 0
-5 12 15 18 22 26 29 30 0
-5 12 15 18 22 26 -29 -30 0
-5 12 15 18 22 -26 29 -30 0
-5 12 15 18 22 -26 -29 30 0
-5 12 15 18 -22 26 29 -30 0
-5 12 15 18 -22 26 -29 30 0
-5 12 15 18 -22 -26 29 30 0
-5 12 15 18 -22 -26 -29 -30 0
-5 12 15 -18 22 26 29 -30 0
-5 12 15 -18 22 26 -29 30 0
-5 12 15 -18 22 -26 29 30 0
-5 12 15 -18 22 -26 -29 -30 0
-5 12 15 -18 -22 26 29 30 0
-5 12 15 -18 -22 26 -29 -30 0
-5 12 15 -18 -22 -26 29 -30 0
-5 12 15 -18 -22 -26 -29 30 0
-5 12 -15 18 22 26 29 -30 0
-5 12 -15 18 22 26 -29 30 0
-5 12 -15 18 22 -26 29 30 0
-5 12 -15 18 22 -26 -29 -30 0
-5 12 -15 18 -22 26 29 30 0
-5 12 -15 18 -22 26 -29 -30 0
-5 12 -15 18 -22 -26 29 -30 0
-5 12 -15 18 -22 -26 -29 30 0
-5 12 -15 -18 22 26 29 30 0
-5 12 -15 -18 22 26 -29 -30 0
-5 12 -15 -18 22 -26 29 -30 0
-5 12 -15 -18 22 -26 -29 30 0
-5 12 -15 -18 -22 26 29 -30 0
-5 12 -15 -18 -22 26 -29 30 0
-5 12 -15 -18 -22 -26 29 30 0
-5 12 -15 -18 -22 -26 -29 -30 0
-5 -12 15 18 22 26 29 -30 0
-5 -12 15 18 22 26 -29 30 0
-5 -12 15 18 22 -26 29 30 0
-5 -12 15 18 22 -26 -29 -30 0
-5 -12 15 18 -22 26 29 30 0
-5 -12 15 18 -22 26 -29 -30 0
-5 -12 15 18 -22 -26 29 -30 0
-5 -12 15 18 -22 -26 -29 30 0
-5 -12 15 -18 22 26 29 30 0
-5 -12 15 -18 22 26 -29 -30 0
-5 -12 15 -18 22 -26 29 -30 0
-5 -12 15 -18 22 -26 -29 30 0
-5 -12 15 -18 -22 26 29 -30 0
-5 -12 15 -18 -22 26 -29 30 0
-5 -12 15 -18 -22 -26 29 30 0
-5 -12 15 -18 -22 -26 -29 -30 0
-5 -12 -15 18 22 26 29 30 0
-5 -12 -15 18 22 26 -29 -30 0
-5 -12 -15 18 22 -26 29 -30 0
-5 -12 -15 18 22 -26 -29 30 0
-5 -12 -15 18 -22 26 29 -30 0
-5 -12 -15 18 -22 26 -29 30 0
-5 -12 -15 18 -22 -26 29 30 0
-5 -12 -15 18 -22 -26 -29 -30 0
-5 -12 -15 -18 22 26 29 -30 0
-5 -12 -15 -18 22 26 -29 30 0
-5 -12 -15 -18 22 -26 29 30 0
-5 -12 -15 -18 22 -26 -29 -30 0
-5 -12 -15 -18 -22 26 29 30 0
-5 -12 -15 -18 -22 26 -29 -30 0
-5 -12 -15 -18 -22 -26 29 -30 0
-5 -12 -15 -18 -22 -26 -29 30 0
6 25 27 -29 0
6 25 -27 29 0
6 -25 27 29 0
6 -25 -27 -29 0
-6 25 27 29 0
-6 25 -27 -29 0
-6 -25 27 -29 0
-6 -25 -27 29 0
7 13 19 23 28 -30 0
7 13 19 23 -28 30 0
7 13 19 -23 28 30 0
7 13 19 -23 -28 -30 0
7 13 -19 23 28 30 0
7 13 -19 23 -28 -30 0
7 13 -19 -23 28 -30 0
7 13 -19 -23 -28 30 0
7 -13 19 23 28 30 0
7 -13 19 23 -28 -30 0
7 -13 19 -23 28 -30 0
7 -13 19 -23 -28 30 0
7 -13 -19 23 28 -30 0
7 -13 -19 23 -28 30 0
7 -13 -19 -23 28 30 0
7 -13 -19 -23 -28 -30 0
-7 13 19 23 28 30 0
-7 13 19 23 -28 -30 0
-7 13 19 -23 28 -30 0
-7 13 19 -23 -28 30 0
-7 13 -19 23 28 -30 0
-7 13 -19 23 -28 30 0
-7 13 -19 -23 28 30 0
-7 13 -19 -23 -28 -30 0
-7 -13 19 23 28 -30 0
-7 -13 19 23 -28 30 0
-7 -13 19 -23 28 30 0
-7 -13 19 -23 -28 -30 0
-7 -13 -19 23 28 30 0
-7 -13 -19 23 -28 -30 0
-7 -13 -19 -23 28 -30 0
-7 -13 -19 -23 -28 30 0